NAME: map2_480
TYPE: TSP
COMMENT: autogenerated using a wonderful map creator
DIMENSION: 600
EDGE_WEIGHT_TYPE: EUC_2D
NODE_COORD_SECTION
1 1.0 5.0
2 1.0 4.0
3 4.0 5.0
4 4.0 4.0
5 7.0 5.0
6 7.0 4.0
7 10.0 5.0
8 10.0 4.0
9 13.0 5.0
10 13.0 4.0
11 16.0 5.0
12 16.0 4.0
13 19.0 5.0
14 19.0 4.0
15 22.0 5.0
16 22.0 4.0
17 25.0 5.0
18 25.0 4.0
19 28.0 5.0
20 28.0 4.0
21 31.0 5.0
22 31.0 4.0
23 34.0 5.0
24 34.0 4.0
25 37.0 5.0
26 37.0 4.0
27 40.0 5.0
28 40.0 4.0
29 43.0 5.0
30 43.0 4.0
31 1.0 95.0
32 1.0 96.0
33 4.0 95.0
34 4.0 96.0
35 7.0 95.0
36 7.0 96.0
37 10.0 95.0
38 10.0 96.0
39 13.0 95.0
40 13.0 96.0
41 16.0 95.0
42 16.0 96.0
43 19.0 95.0
44 19.0 96.0
45 22.0 95.0
46 22.0 96.0
47 25.0 95.0
48 25.0 96.0
49 28.0 95.0
50 28.0 96.0
51 31.0 95.0
52 31.0 96.0
53 34.0 95.0
54 34.0 96.0
55 37.0 95.0
56 37.0 96.0
57 40.0 95.0
58 40.0 96.0
59 43.0 95.0
60 43.0 96.0
61 1.0 3.0
62 4.0 97.0
63 7.0 3.0
64 10.0 97.0
65 13.0 3.0
66 16.0 97.0
67 19.0 3.0
68 22.0 97.0
69 25.0 3.0
70 28.0 97.0
71 31.0 3.0
72 34.0 97.0
73 37.0 3.0
74 40.0 97.0
75 43.0 3.0
76 1.0 2.0
77 4.0 98.0
78 7.0 2.0
79 10.0 98.0
80 13.0 2.0
81 16.0 98.0
82 19.0 2.0
83 22.0 98.0
84 25.0 2.0
85 28.0 98.0
86 31.0 2.0
87 34.0 98.0
88 37.0 2.0
89 40.0 98.0
90 43.0 2.0
91 1.0 97.0
92 4.0 3.0
93 7.0 97.0
94 10.0 3.0
95 13.0 97.0
96 16.0 3.0
97 19.0 97.0
98 22.0 3.0
99 25.0 97.0
100 28.0 3.0
101 31.0 97.0
102 34.0 3.0
103 37.0 97.0
104 40.0 3.0
105 43.0 97.0
106 1.0 98.0
107 4.0 2.0
108 7.0 98.0
109 10.0 2.0
110 13.0 98.0
111 16.0 2.0
112 19.0 98.0
113 22.0 2.0
114 25.0 98.0
115 28.0 2.0
116 31.0 98.0
117 34.0 2.0
118 37.0 98.0
119 40.0 2.0
120 43.0 98.0
121 2.0 95.0
122 2.0 96.0
123 5.0 95.0
124 5.0 96.0
125 8.0 95.0
126 8.0 96.0
127 11.0 95.0
128 11.0 96.0
129 14.0 95.0
130 14.0 96.0
131 17.0 95.0
132 17.0 96.0
133 20.0 95.0
134 20.0 96.0
135 23.0 95.0
136 23.0 96.0
137 26.0 95.0
138 26.0 96.0
139 29.0 95.0
140 29.0 96.0
141 32.0 95.0
142 32.0 96.0
143 35.0 95.0
144 35.0 96.0
145 38.0 95.0
146 38.0 96.0
147 41.0 95.0
148 41.0 96.0
149 44.0 95.0
150 44.0 96.0
151 2.0 5.0
152 2.0 4.0
153 5.0 5.0
154 5.0 4.0
155 8.0 5.0
156 8.0 4.0
157 11.0 5.0
158 11.0 4.0
159 14.0 5.0
160 14.0 4.0
161 17.0 5.0
162 17.0 4.0
163 20.0 5.0
164 20.0 4.0
165 23.0 5.0
166 23.0 4.0
167 26.0 5.0
168 26.0 4.0
169 29.0 5.0
170 29.0 4.0
171 32.0 5.0
172 32.0 4.0
173 35.0 5.0
174 35.0 4.0
175 38.0 5.0
176 38.0 4.0
177 41.0 5.0
178 41.0 4.0
179 44.0 5.0
180 44.0 4.0
181 2.0 97.0
182 5.0 3.0
183 8.0 97.0
184 11.0 3.0
185 14.0 97.0
186 17.0 3.0
187 20.0 97.0
188 23.0 3.0
189 26.0 97.0
190 29.0 3.0
191 32.0 97.0
192 35.0 3.0
193 38.0 97.0
194 41.0 3.0
195 44.0 97.0
196 2.0 98.0
197 5.0 2.0
198 8.0 98.0
199 11.0 2.0
200 14.0 98.0
201 17.0 2.0
202 20.0 98.0
203 23.0 2.0
204 26.0 98.0
205 29.0 2.0
206 32.0 98.0
207 35.0 2.0
208 38.0 98.0
209 41.0 2.0
210 44.0 98.0
211 2.0 3.0
212 5.0 97.0
213 8.0 3.0
214 11.0 97.0
215 14.0 3.0
216 17.0 97.0
217 20.0 3.0
218 23.0 97.0
219 26.0 3.0
220 29.0 97.0
221 32.0 3.0
222 35.0 97.0
223 38.0 3.0
224 41.0 97.0
225 44.0 3.0
226 2.0 2.0
227 5.0 98.0
228 8.0 2.0
229 11.0 98.0
230 14.0 2.0
231 17.0 98.0
232 20.0 2.0
233 23.0 98.0
234 26.0 2.0
235 29.0 98.0
236 32.0 2.0
237 35.0 98.0
238 38.0 2.0
239 41.0 98.0
240 44.0 2.0
241 1.0 86.0
242 7.0 26.0
243 7.0 35.0
244 28.0 76.0
245 28.0 85.0
246 22.0 10.0
247 37.0 8.0
248 22.0 28.0
249 22.0 37.0
250 43.0 69.0
251 13.0 65.0
252 16.0 70.0
253 7.0 21.0
254 16.0 88.0
255 28.0 53.0
256 28.0 62.0
257 40.0 54.0
258 21.0 50.0
259 40.0 63.0
260 25.0 11.0
261 10.0 31.0
262 25.0 29.0
263 25.0 38.0
264 25.0 47.0
265 34.0 25.0
266 31.0 90.0
267 37.0 21.0
268 43.0 64.0
269 1.0 67.0
270 16.0 65.0
271 43.0 91.0
272 16.0 74.0
273 28.0 39.0
274 36.0 61.0
275 40.0 22.0
276 28.0 66.0
277 28.0 75.0
278 40.0 49.0
279 10.0 17.0
280 10.0 26.0
281 25.0 24.0
282 31.0 67.0
283 34.0 11.0
284 22.0 9.0
285 31.0 76.0
286 43.0 41.0
287 22.0 18.0
288 31.0 85.0
289 37.0 16.0
290 32.0 50.0
291 13.0 46.0
292 4.0 77.0
293 43.0 68.0
294 16.0 51.0
295 13.0 64.0
296 43.0 77.0
297 28.0 25.0
298 28.0 34.0
299 13.0 82.0
300 28.0 43.0
301 40.0 8.0
302 28.0 61.0
303 40.0 35.0
304 42.0 72.0
305 27.0 83.0
306 19.0 79.0
307 25.0 10.0
308 2.0 17.0
309 31.0 53.0
310 25.0 28.0
311 31.0 62.0
312 31.0 71.0
313 22.0 13.0
314 13.0 32.0
315 4.0 63.0
316 43.0 45.0
317 13.0 41.0
318 43.0 54.0
319 1.0 57.0
320 43.0 72.0
321 16.0 55.0
322 28.0 20.0
323 16.0 73.0
324 28.0 38.0
325 1.0 84.0
326 40.0 30.0
327 19.0 74.0
328 30.0 83.0
329 10.0 25.0
330 19.0 92.0
331 31.0 57.0
332 4.0 49.0
333 13.0 27.0
334 1.0 34.0
335 4.0 67.0
336 16.0 32.0
337 1.0 43.0
338 4.0 76.0
339 13.0 63.0
340 1.0 61.0
341 36.0 28.0
342 28.0 24.0
343 1.0 70.0
344 16.0 68.0
345 40.0 16.0
346 19.0 69.0
347 25.0 9.0
348 19.0 87.0
349 31.0 52.0
350 13.0 13.0
351 4.0 44.0
352 4.0 53.0
353 13.0 31.0
354 1.0 29.0
355 16.0 27.0
356 43.0 53.0
357 34.0 72.0
358 1.0 47.0
359 13.0 49.0
360 34.0 81.0
361 28.0 10.0
362 1.0 56.0
363 34.0 90.0
364 22.0 88.0
365 37.0 86.0
366 28.0 28.0
367 7.0 63.0
368 27.0 50.0
369 19.0 46.0
370 7.0 90.0
371 19.0 64.0
372 31.0 29.0
373 31.0 56.0
374 1.0 15.0
375 43.0 30.0
376 4.0 48.0
377 12.0 61.0
378 1.0 24.0
379 4.0 57.0
380 43.0 39.0
381 16.0 31.0
382 37.0 63.0
383 34.0 76.0
384 22.0 74.0
385 37.0 90.0
386 9.0 28.0
387 19.0 32.0
388 30.0 50.0
389 39.0 28.0
390 42.0 61.0
391 27.0 72.0
392 19.0 68.0
393 31.0 42.0
394 4.0 34.0
395 13.0 12.0
396 43.0 34.0
397 16.0 17.0
398 13.0 30.0
399 1.0 28.0
400 34.0 62.0
401 16.0 26.0
402 1.0 46.0
403 34.0 80.0
404 37.0 76.0
405 34.0 89.0
406 22.0 87.0
407 7.0 44.0
408 7.0 71.0
409 19.0 36.0
410 19.0 45.0
411 40.0 86.0
412 4.0 20.0
413 43.0 11.0
414 13.0 16.0
415 25.0 70.0
416 22.0 55.0
417 16.0 21.0
418 34.0 57.0
419 22.0 64.0
420 16.0 30.0
421 37.0 71.0
422 37.0 80.0
423 7.0 57.0
424 19.0 31.0
425 29.0 72.0
426 19.0 49.0
427 40.0 81.0
428 31.0 23.0
429 4.0 15.0
430 23.0 28.0
431 4.0 24.0
432 1.0 9.0
433 10.0 76.0
434 1.0 18.0
435 2.0 72.0
436 25.0 83.0
437 37.0 48.0
438 22.0 68.0
439 34.0 70.0
440 22.0 77.0
441 7.0 34.0
442 28.0 84.0
443 18.0 61.0
444 19.0 26.0
445 7.0 61.0
446 19.0 35.0
447 40.0 67.0
448 19.0 44.0
449 21.0 72.0
450 10.0 53.0
451 37.0 25.0
452 22.0 45.0
453 22.0 54.0
454 3.0 50.0
455 38.0 17.0
456 37.0 61.0
457 7.0 29.0
458 7.0 38.0
459 7.0 47.0
460 19.0 12.0
461 7.0 56.0
462 28.0 88.0
463 40.0 71.0
464 40.0 80.0
465 25.0 46.0
466 22.0 22.0
467 25.0 55.0
468 37.0 20.0
469 25.0 64.0
470 10.0 75.0
471 10.0 84.0
472 43.0 81.0
473 22.0 58.0
474 37.0 56.0
475 26.0 28.0
476 16.0 82.0
477 7.0 24.0
478 16.0 91.0
479 7.0 33.0
480 5.0 72.0
481 28.0 74.0
482 28.0 92.0
483 40.0 66.0
484 40.0 75.0
485 25.0 23.0
486 4.0 9.0
487 34.0 10.0
488 10.0 52.0
489 22.0 17.0
490 37.0 15.0
491 10.0 70.0
492 43.0 67.0
493 22.0 44.0
494 43.0 76.0
495 13.0 72.0
496 43.0 85.0
497 16.0 77.0
498 40.0 34.0
499 28.0 78.0
500 28.0 87.0
501 40.0 52.0
502 9.0 83.0
503 29.0 61.0
504 10.0 20.0
505 40.0 70.0
506 10.0 38.0
507 39.0 83.0
508 22.0 12.0
509 10.0 47.0
510 37.0 10.0
511 34.0 23.0
512 13.0 67.0
513 16.0 72.0
514 1.0 83.0
515 13.0 85.0
516 7.0 23.0
517 16.0 90.0
518 28.0 55.0
519 40.0 47.0
520 25.0 13.0
521 19.0 91.0
522 10.0 33.0
523 25.0 31.0
524 10.0 42.0
525 34.0 18.0
526 22.0 16.0
527 22.0 25.0
528 37.0 23.0
529 43.0 66.0
530 1.0 60.0
531 16.0 58.0
532 43.0 84.0
533 13.0 80.0
534 16.0 85.0
535 17.0 50.0
536 28.0 59.0
537 40.0 42.0
538 19.0 77.0
539 25.0 17.0
540 10.0 28.0
541 25.0 26.0
542 31.0 69.0
543 31.0 78.0
544 37.0 9.0
545 43.0 43.0
546 22.0 20.0
547 35.0 39.0
548 24.0 39.0
549 32.0 61.0
550 43.0 61.0
551 13.0 66.0
552 43.0 79.0
553 28.0 27.0
554 16.0 71.0
555 1.0 91.0
556 28.0 54.0
557 19.0 90.0
558 2.0 28.0
559 31.0 64.0
560 13.0 25.0
561 13.0 34.0
562 13.0 43.0
563 1.0 50.0
564 36.0 17.0
565 43.0 65.0
566 35.0 61.0
567 13.0 61.0
568 37.0 89.0
569 1.0 77.0
570 16.0 75.0
571 21.0 28.0
572 11.0 72.0
573 19.0 85.0
574 31.0 50.0
575 43.0 15.0
576 4.0 42.0
577 4.0 51.0
578 43.0 42.0
579 13.0 56.0
580 1.0 54.0
581 16.0 52.0
582 34.0 88.0
583 1.0 63.0
584 37.0 84.0
585 16.0 61.0
586 15.0 83.0
587 31.0 54.0
588 12.0 50.0
589 13.0 24.0
590 4.0 55.0
591 13.0 33.0
592 1.0 40.0
593 4.0 73.0
594 1.0 49.0
595 37.0 70.0
596 28.0 12.0
597 22.0 90.0
598 28.0 30.0
599 7.0 65.0
600 19.0 39.0
601 27.0 61.0
602 19.0 57.0
603 31.0 31.0
604 13.0 10.0
605 4.0 41.0
606 1.0 17.0
607 13.0 19.0
608 25.0 82.0
609 1.0 26.0
610 4.0 59.0
611 13.0 37.0
612 37.0 65.0
613 34.0 78.0
614 38.0 39.0
615 34.0 87.0
616 28.0 16.0
617 22.0 85.0
618 37.0 83.0
619 7.0 60.0
620 7.0 78.0
621 19.0 43.0
622 7.0 87.0
623 20.0 17.0
624 40.0 84.0
625 19.0 70.0
626 31.0 35.0
627 4.0 36.0
628 13.0 14.0
629 25.0 68.0
630 4.0 45.0
631 16.0 10.0
632 13.0 23.0
633 25.0 77.0
634 10.0 88.0
635 34.0 55.0
636 37.0 51.0
637 22.0 62.0
638 37.0 60.0
639 22.0 71.0
640 34.0 82.0
641 37.0 78.0
642 37.0 87.0
643 7.0 46.0
644 7.0 55.0
645 19.0 20.0
646 19.0 38.0
647 7.0 82.0
648 19.0 47.0
649 40.0 88.0
650 4.0 13.0
651 43.0 13.0
652 34.0 32.0
653 4.0 31.0
654 25.0 63.0
655 13.0 9.0
656 4.0 40.0
657 34.0 41.0
658 10.0 65.0
659 13.0 18.0
660 25.0 72.0
661 10.0 83.0
662 34.0 50.0
663 25.0 81.0
664 22.0 57.0
665 34.0 59.0
666 37.0 55.0
667 22.0 75.0
668 18.0 50.0
669 19.0 15.0
670 40.0 65.0
671 40.0 74.0
672 6.0 72.0
673 31.0 16.0
674 40.0 92.0
675 4.0 17.0
676 34.0 27.0
677 10.0 69.0
678 4.0 35.0
679 22.0 34.0
680 25.0 67.0
681 10.0 78.0
682 34.0 45.0
683 3.0 39.0
684 10.0 87.0
685 22.0 52.0
686 14.0 39.0
687 25.0 85.0
688 37.0 50.0
689 7.0 18.0
690 7.0 54.0
691 28.0 86.0
692 30.0 28.0
693 8.0 28.0
694 31.0 11.0
695 40.0 78.0
696 33.0 39.0
697 10.0 46.0
698 41.0 61.0
699 10.0 55.0
700 34.0 22.0
701 4.0 21.0
702 25.0 53.0
703 37.0 18.0
704 10.0 64.0
705 34.0 40.0
706 10.0 82.0
707 37.0 45.0
708 22.0 56.0
709 43.0 88.0
710 13.0 84.0
711 38.0 28.0
712 16.0 89.0
713 19.0 14.0
714 40.0 46.0
715 28.0 90.0
716 40.0 64.0
717 34.0 8.0
718 22.0 33.0
719 37.0 31.0
720 37.0 40.0
START_DEPOT_SECTION
1
2
3
4
5
6
7
8
9
10
11
12
13
14
15
16
17
18
19
20
21
22
23
24
25
26
27
28
29
30
31
32
33
34
35
36
37
38
39
40
41
42
43
44
45
46
47
48
49
50
51
52
53
54
55
56
57
58
59
60
61
62
63
64
65
66
67
68
69
70
71
72
73
74
75
76
77
78
79
80
81
82
83
84
85
86
87
88
89
90
91
92
93
94
95
96
97
98
99
100
101
102
103
104
105
106
107
108
109
110
111
112
113
114
115
116
117
118
119
120
-1
END_DEPOT_SECTION
121
122
123
124
125
126
127
128
129
130
131
132
133
134
135
136
137
138
139
140
141
142
143
144
145
146
147
148
149
150
151
152
153
154
155
156
157
158
159
160
161
162
163
164
165
166
167
168
169
170
171
172
173
174
175
176
177
178
179
180
181
182
183
184
185
186
187
188
189
190
191
192
193
194
195
196
197
198
199
200
201
202
203
204
205
206
207
208
209
210
211
212
213
214
215
216
217
218
219
220
221
222
223
224
225
226
227
228
229
230
231
232
233
234
235
236
237
238
239
240
-1
EOF
